c clasp version 2.1.1
c Reading from p10.cnf
c Solving...
s SATISFIABLE

c Models        : 1+    
c Time          : 0.733s (Solving: 0.14s 1st Model: 0.13s Unsat: 0.00s)
c CPU Time      : 0.730s
c Choices       : 10359
c Conflicts     : 327
c Restarts      : 1      (Average: 327.00 Last: 111)

c Variables     : 170286 (Eliminated: 52988 Frozen:    0)
c Constraints   : 195469 (Binary: 64.5% Ternary: 34.1% Other:  1.4%)
c Lemmas        : 327    (Binary:  0.3% Ternary:  1.8% Other: 97.9%)
c   Conflict    : 327    (Average Length: 26.8) 
c   Loop        : 0      (Average Length: 0.0) 
c   Other       : 0      (Average Length: 0.0)
c   Deleted     : 0     
